
******************************************************************************
This program contains Ipopt, a library for large-scale nonlinear optimization.
 Ipopt is released as open source code under the Eclipse Public License (EPL).
         For more information visit http://projects.coin-or.org/Ipopt

This version of Ipopt was compiled from source code available at
    https://github.com/IDAES/Ipopt as part of the Institute for the Design of
    Advanced Energy Systems Process Systems Engineering Framework (IDAES PSE
    Framework) Copyright (c) 2018-2019. See https://github.com/IDAES/idaes-pse.

This version of Ipopt was compiled using HSL, a collection of Fortran codes
    for large-scale scientific computation.  All technical papers, sales and
    publicity material resulting from use of the HSL codes within IPOPT must
    contain the following acknowledgement:
        HSL, a collection of Fortran codes for large-scale scientific
        computation. See http://www.hsl.rl.ac.uk.
******************************************************************************

This is Ipopt version 3.13.2, running with linear solver ma27.

Number of nonzeros in equality constraint Jacobian...:     1840
Number of nonzeros in inequality constraint Jacobian.:        0
Number of nonzeros in Lagrangian Hessian.............:     3296

Total number of variables............................:      640
                     variables with only lower bounds:      128
                variables with lower and upper bounds:      448
                     variables with only upper bounds:        0
Total number of equality constraints.................:      632
Total number of inequality constraints...............:        0
        inequality constraints with only lower bounds:        0
   inequality constraints with lower and upper bounds:        0
        inequality constraints with only upper bounds:        0

iter    objective    inf_pr   inf_du lg(mu)  ||d||  lg(rg) alpha_du alpha_pr  ls
   0  0.0000000e+00 7.02e-01 5.60e-14  -1.0 0.00e+00    -  0.00e+00 0.00e+00   0
   1  5.1789333e-01 6.85e-01 9.26e+02  -1.0 2.23e+05    -  1.38e-01 2.42e-02h  5
   2  3.8821132e+00 8.27e-01 3.83e+03  -1.0 2.29e+05    -  1.91e-01 4.22e-02h  4
   3  1.1364877e+01 8.61e-01 7.45e+03  -1.0 2.36e+05    -  3.54e-01 4.37e-02h  4
   4  2.7356902e+02 3.12e+00 2.09e+05  -1.0 3.36e+05    -  3.19e-01 3.32e-01h  2
   5  2.8418835e+02 3.10e+00 2.07e+05  -1.0 1.22e+06    -  1.09e-01 8.95e-03h  6
   6  2.9665472e+02 3.07e+00 2.01e+06  -1.0 1.01e+06  -4.0 3.50e-02 7.45e-03h  5
   7  2.9836482e+02 3.07e+00 2.89e+06  -1.0 1.51e+07  -4.5 5.30e-02 1.66e-03h  5
   8  3.0008307e+02 3.06e+00 2.96e+06  -1.0 7.88e+06  -5.0 1.52e-02 7.31e-04h  7
   9  3.1538379e+02 3.05e+00 2.96e+06  -1.0 9.49e+05  -4.5 5.70e-02 6.08e-03h  5
iter    objective    inf_pr   inf_du lg(mu)  ||d||  lg(rg) alpha_du alpha_pr  ls
  10  3.2086204e+02 3.04e+00 2.98e+06  -1.0 2.17e+06  -5.0 5.14e-02 2.18e-03h  6
  11  6.5437275e+02 1.06e+02 6.30e+06  -1.0 8.72e+05  -4.6 8.17e-02 8.88e-02w  1
  12  6.5556504e+02 1.05e+02 6.30e+06  -1.0 1.03e+06  -5.1 7.34e-02 5.81e-04w  1
  13  1.7510009e+03 1.03e+02 1.31e+08  -1.0 2.07e+07  -5.5 7.40e-05 2.29e-02w  1
  14  3.2798442e+02 3.03e+00 2.97e+06  -1.0 1.02e+06  -4.2 8.17e-02 2.77e-03h  5
  15  3.3489174e+02 3.02e+00 2.97e+06  -1.0 8.74e+05  -4.7 8.59e-02 2.66e-03h  6
  16  3.3728840e+02 3.02e+00 2.97e+06  -1.0 1.84e+06  -5.2 1.27e-01 9.74e-04h  7
  17  3.4396712e+02 3.01e+00 2.96e+06  -1.0 8.75e+05  -4.7 7.36e-02 2.54e-03h  6
  18  3.4630111e+02 3.01e+00 2.96e+06  -1.0 1.62e+06  -5.2 1.23e-01 9.47e-04h  7
  19  3.4950296e+02 3.01e+00 2.96e+06  -1.0 8.74e+05  -4.8 8.50e-02 1.22e-03h  7
iter    objective    inf_pr   inf_du lg(mu)  ||d||  lg(rg) alpha_du alpha_pr  ls
  20  3.5176732e+02 3.00e+00 2.96e+06  -1.0 1.52e+06  -5.3 1.08e-01 9.19e-04h  7
  21  3.5176282e+02 3.00e+00 2.96e+06  -1.0 4.55e+07  -5.7 1.95e-03 9.51e-06f  9
  22  3.5410588e+02 3.00e+00 2.96e+06  -1.0 1.38e+06  -5.3 1.60e-01 9.41e-04h  7
  23  3.5434248e+02 3.00e+00 2.96e+06  -1.0 4.63e+06  -5.8 2.17e-02 9.16e-05h  9
  24  6.4857370e+02 1.45e+03 7.05e+06  -1.0 1.06e+06  -5.4 3.19e-01 7.57e-02w  1
  25  6.8928488e+02 1.43e+03 6.98e+06  -1.0 8.84e+05  -4.9 3.51e-01 9.42e-03w  1
  26  1.3585760e+03 1.20e+03 1.18e+07  -1.0 9.62e+05  -4.5 1.55e-01 1.08e-01w  1
  27  3.5738804e+02 3.00e+00 2.95e+06  -1.0 1.69e+06  -5.0 3.19e-01 1.18e-03h  6
  28  4.0791197e+02 2.95e+00 2.94e+06  -1.0 1.05e+06  -5.5 2.11e-01 1.70e-02h  4
  29  4.3531778e+02 2.92e+00 2.90e+06  -1.0 9.47e+05  -5.0 3.19e-01 8.47e-03h  5
iter    objective    inf_pr   inf_du lg(mu)  ||d||  lg(rg) alpha_du alpha_pr  ls
  30  5.0828705e+02 2.88e+00 2.69e+06  -1.0 3.82e+06  -5.5 9.70e-02 1.55e-02h  4
  31  1.5547259e+03 2.40e+00 1.81e+07  -1.0 8.90e+05  -5.1 3.77e-01 1.66e-01h  2
  32  1.8476249e+03 2.31e+00 1.80e+07  -1.0 1.44e+06  -4.7 3.73e-01 3.73e-02h  3
  33  2.0251757e+03 2.28e+00 1.58e+07  -1.0 4.96e+06  -5.1 1.27e-01 1.34e-02h  4
  34  2.2125669e+03 2.23e+00 1.58e+07  -1.0 1.22e+06  -4.7 6.89e-01 2.15e-02h  4
  35  2.2302757e+03 2.22e+00 1.57e+07  -1.0 1.64e+06  -5.2 2.29e-01 2.00e-03h  6
  36  2.2941491e+03 2.21e+00 1.57e+07  -1.0 1.26e+06  -4.8 7.28e-01 6.55e-03h  5
  37  2.2833691e+03 1.73e+02 1.57e+07  -1.0 3.52e+07  -3.4 2.10e-05 4.83e-05w  1
  38  7.0036369e+03 1.17e+02 4.51e+08  -1.0 1.34e+06  -3.9 8.02e-01 3.28e-01w  1
  39  9.4170590e+03 1.09e+02 4.39e+08  -1.0 1.26e+07  -4.4 6.09e-02 6.21e-02w  1
iter    objective    inf_pr   inf_du lg(mu)  ||d||  lg(rg) alpha_du alpha_pr  ls
  40  2.2939800e+03 2.21e+00 1.57e+07  -1.0 1.76e+06  -4.0 2.10e-05 7.55e-07f  6
  41  2.2941278e+03 2.21e+00 1.57e+07  -1.0 9.89e+05  -3.5 1.29e-02 2.31e-05h  9
  42r 2.2941278e+03 2.21e+00 1.00e+03   0.3 0.00e+00  -3.1 0.00e+00 4.32e-07R 14
  43r 2.2941255e+03 6.84e-01 9.97e+02   0.3 2.71e+03    -  5.30e-03 1.11e-03f  1
  44  2.3206742e+03 6.82e-01 1.20e+02  -1.0 1.78e+06    -  6.26e-02 2.23e-03h  7
  45  2.4193372e+03 6.77e-01 8.53e+01  -1.0 1.77e+06    -  3.25e-01 8.04e-03h  6
  46  2.6505572e+03 6.96e-01 3.53e+02  -1.0 1.70e+06    -  5.89e-01 1.77e-02h  6
  47  2.8250837e+03 6.91e-01 2.94e+02  -1.0 1.40e+06    -  5.34e-01 1.47e-02h  6
  48  4.0332380e+03 8.69e-01 3.44e+03  -1.0 1.51e+06    -  5.69e-01 7.83e-02h  4
  49  4.0335584e+03 8.69e-01 3.46e+03  -1.0 6.96e+05  -3.6 8.87e-03 7.27e-05h  9
iter    objective    inf_pr   inf_du lg(mu)  ||d||  lg(rg) alpha_du alpha_pr  ls
  50  4.0337014e+03 8.69e-01 3.46e+03  -1.0 7.51e+05  -4.1 2.05e-02 3.09e-05h 10
  51  4.0338528e+03 8.69e-01 3.46e+03  -1.0 7.48e+05  -4.5 1.68e-01 2.96e-05h 10
  52  4.0348876e+03 8.70e-01 3.46e+03  -1.0 8.25e+05  -5.0 1.41e-02 1.05e-04h  9
  53  4.0389470e+03 8.72e-01 3.48e+03  -1.0 1.05e+06  -5.5 5.78e-01 3.30e-04h  8
  54  4.8942986e+03 1.74e+02 1.97e+05  -1.0 1.22e+06  -6.0 2.92e-02 5.64e-02w  1
  55  2.0185458e+04 6.09e+01 1.93e+07  -1.0 1.18e+06  -6.5 2.46e-02 6.49e-01w  1
  56  2.0416839e+04 1.50e+02 1.62e+07  -1.0 4.27e+05  -5.1 1.54e-01 1.74e-01w  1
  57  4.0450699e+03 8.73e-01 3.49e+03  -1.0 2.78e+05  -4.7 2.92e-02 4.40e-04h  7
  58  4.0455567e+03 8.74e-01 3.49e+03  -1.0 1.21e+06  -5.2 9.91e-01 3.44e-05h 10
  59  4.1280694e+03 8.69e-01 7.47e+03  -1.0 1.26e+06  -5.7 7.57e-01 5.54e-03h  8
iter    objective    inf_pr   inf_du lg(mu)  ||d||  lg(rg) alpha_du alpha_pr  ls
  60  4.1241099e+03 8.68e-01 7.47e+03  -1.0 4.25e+06    -  4.53e-01 7.54e-04f  9
  61  4.1222316e+03 8.68e-01 7.46e+03  -1.0 4.09e+06    -  7.47e-01 3.90e-04f 10
  62  4.1215525e+03 8.68e-01 7.46e+03  -1.0 3.83e+06    -  2.00e-01 1.21e-04f 11
  63  4.1210265e+03 8.68e-01 7.46e+03  -1.0 4.05e+06    -  1.89e-01 1.07e-04f 11
  64  4.1209338e+03 8.68e-01 7.46e+03  -1.0 4.19e+06    -  6.71e-01 2.42e-05f 13
  65  4.1202688e+03 1.40e+00 6.85e+03  -1.0 4.85e+06    -  7.05e-01 4.39e-03f  5
  66  4.0554677e+03 8.42e-01 3.45e+04  -1.0 1.38e+07    -  2.88e-02 6.15e-03f  3
  67  4.0671823e+03 1.74e+02 2.52e+05  -1.0 6.69e+05  -3.4 1.80e-03 3.22e-03w  1
  68  8.6897322e+03 1.22e+02 6.30e+08  -1.0 9.94e+05  -3.9 1.96e-02 2.97e-01w  1
  69  8.6908640e+03 1.22e+02 6.30e+08  -1.0 1.86e+05  -2.6 4.41e-01 1.14e-03w  1
iter    objective    inf_pr   inf_du lg(mu)  ||d||  lg(rg) alpha_du alpha_pr  ls
  70r 4.0554677e+03 8.42e-01 9.99e+02  -0.1 0.00e+00  -3.0 0.00e+00 4.80e-11R 26
  71r 4.0554672e+03 1.23e+00 9.89e+02  -0.1 4.12e+03    -  5.56e-02 1.37e-03f  1
  72r 4.0554585e+03 1.81e+00 9.65e+02  -0.1 1.05e+03    -  2.23e-02 2.40e-02f  1
  73r 4.0554585e+03 1.79e+00 9.53e+02  -0.1 8.04e+02    -  2.56e-02 9.86e-03f  1
  74r 4.0554585e+03 1.75e+00 9.55e+02  -0.1 1.11e+01   0.0 1.20e-02 2.32e-02f  1
  75r 4.0554572e+03 1.68e+00 9.23e+02  -0.1 1.02e+03    -  3.73e-02 3.77e-02f  1
  76r 4.0554841e+03 2.72e+00 8.26e+02  -0.1 5.51e+02    -  1.02e-01 6.03e-02f  1
  77r 4.0554875e+03 4.44e+00 7.66e+02  -0.1 2.93e+02    -  5.65e-02 7.23e-02f  1
  78r 4.0555991e+03 3.82e+00 6.60e+02  -0.1 2.54e+02    -  1.52e-01 1.40e-01f  1
  79r 4.0557442e+03 2.51e+00 4.35e+02  -0.1 1.28e+02    -  4.35e-01 3.42e-01f  1
iter    objective    inf_pr   inf_du lg(mu)  ||d||  lg(rg) alpha_du alpha_pr  ls
  80r 4.0558255e+03 1.90e+00 2.32e+02  -0.1 9.38e+01    -  4.78e-01 4.66e-01f  1
  81r 4.0557712e+03 5.07e+00 2.16e+02  -0.1 5.05e+02    -  9.80e-02 6.59e-02f  1
  82r 4.0557945e+03 4.47e+00 1.86e+02  -0.1 2.78e+02    -  1.92e-01 1.44e-01f  1
  83r 4.0558842e+03 2.85e+00 1.18e+02  -0.1 2.35e+02    -  3.83e-01 3.64e-01f  1
  84r 4.0558842e+03 2.16e+00 1.60e+02  -0.1 4.80e+00  -0.5 5.64e-01 7.51e-01f  1
  85r 4.0560261e+03 1.89e+00 2.34e+02  -0.1 9.26e+01    -  4.63e-01 3.19e-01f  1
  86r 4.0559913e+03 3.14e+00 1.72e+02  -0.1 7.29e+01    -  4.27e-01 2.86e-01f  1
  87r 4.0559840e+03 2.45e+00 3.88e+02  -0.1 1.14e+02    -  5.24e-01 2.18e-01f  1
  88r 4.0559858e+03 4.88e+00 6.26e+02  -0.1 6.39e+01    -  9.86e-01 5.34e-01f  1
  89r 4.0559886e+03 4.53e+00 4.86e+02  -0.1 2.66e+01    -  1.00e+00 7.26e-02h  1
iter    objective    inf_pr   inf_du lg(mu)  ||d||  lg(rg) alpha_du alpha_pr  ls
  90r 4.0561241e+03 3.91e-01 1.99e+01  -0.1 2.97e+01    -  1.00e+00 1.00e+00f  1
  91  4.0587831e+03 3.90e-01 2.57e+02  -1.0 6.80e+05    -  2.75e-01 1.58e-03h  8
  92  4.0612205e+03 3.90e-01 2.96e+02  -1.0 6.91e+05    -  3.60e-01 1.91e-03h  8
  93  4.1107493e+03 3.65e-01 4.00e+02  -1.0 7.00e+05    -  6.67e-01 6.19e-02h  5
  94  3.2466688e+03 6.29e+00 7.71e+03  -1.0 5.97e+05    -  2.91e-01 6.56e-01f  1
  95  3.2362645e+03 5.22e+00 5.94e+05  -1.0 1.56e+05  -3.5 6.53e-03 1.70e-01F  1
  96  3.2255096e+03 5.03e+00 5.74e+05  -1.0 1.57e+05  -4.0 6.77e-01 3.63e-02h  1
  97  3.2730048e+03 3.03e+00 4.46e+06  -1.0 1.85e+05  -4.5 1.40e-01 9.90e-01h  1
  98  3.2750494e+03 2.95e+00 4.36e+06  -1.0 9.54e+04  -4.1 9.05e-01 2.64e-02h  1
  99  3.6289469e+03 3.46e+00 9.48e+06  -1.0 9.10e+04  -3.6 9.85e-01 9.90e-01h  1
iter    objective    inf_pr   inf_du lg(mu)  ||d||  lg(rg) alpha_du alpha_pr  ls
 100  3.6013446e+03 2.40e+00 1.13e+07  -1.0 8.50e+04  -3.2 8.84e-01 9.90e-01f  1
 101  3.6571940e+03 2.03e+00 3.73e+08  -1.0 6.18e+04  -3.7 1.00e+00 1.54e-01h  1
 102  3.6573909e+03 2.03e+00 8.93e+08  -1.0 7.44e+04  -4.2 1.00e+00 8.04e-04h  1
 103  3.8217715e+03 1.79e+00 7.14e+08  -1.0 6.00e+04  -3.7 1.00e+00 4.95e-01h  2
 104  3.8074850e+03 1.99e+00 1.76e+08  -1.0 3.82e+04  -4.2 8.12e-01 9.90e-01f  1
 105  3.8861162e+03 1.50e+00 7.76e+10  -1.0 6.66e+04  -4.7 1.00e+00 2.47e-01h  3
 106  3.9132428e+03 1.31e+00 1.88e+11  -1.0 5.14e+04  -5.2 1.00e+00 1.24e-01h  4
 107  3.9192921e+03 1.27e+00 3.34e+11  -1.0 5.32e+04  -4.7 1.00e+00 3.09e-02h  6
 108  3.9221656e+03 1.25e+00 4.88e+11  -1.0 4.69e+04  -5.2 1.00e+00 1.55e-02h  7
 109  3.9228850e+03 1.25e+00 5.58e+11  -1.0 5.09e+04  -4.8 4.42e-01 3.87e-03h  9
iter    objective    inf_pr   inf_du lg(mu)  ||d||  lg(rg) alpha_du alpha_pr  ls
 110  3.9459281e+03 1.21e+00 5.64e+11  -1.0 4.55e+04  -5.3 5.81e-01 1.24e-01h  4
 111  4.0875602e+03 9.55e-01 1.24e+11  -1.0 4.91e+04  -5.7 3.00e-01 9.90e-01h  1
 112  4.1005365e+03 8.86e-01 6.41e+12  -1.0 3.92e+04  -6.2 6.49e-01 9.90e-01h  1
In iteration 112, 32 Slacks too small, adjusting variable bounds
 113  3.9463167e+03 1.04e+00 9.11e+14  -1.0 3.44e+04  -6.7 5.06e-01 9.90e-01f  1
 114  2.4441126e+03 1.17e+01 2.82e+14  -1.0 3.11e+05    -  6.57e-01 6.73e-01f  1
 115  1.8081348e+03 9.92e+00 1.92e+14  -1.0 1.17e+06    -  6.96e-03 1.51e-01f  1
 116  1.7851889e+03 7.77e+00 8.32e+13  -1.0 2.52e+05    -  9.05e-03 2.17e-01f  1
 117  2.5685703e+03 6.15e+00 9.10e+13  -1.0 2.58e+05    -  8.68e-02 5.00e-01h  2
 118  2.7479234e+03 8.39e+00 1.35e+14  -1.0 3.91e+05    -  1.93e-01 5.00e-01h  2
 119  2.9335096e+03 8.32e+00 1.20e+14  -1.0 4.11e+06    -  6.87e-02 8.64e-03H  1
iter    objective    inf_pr   inf_du lg(mu)  ||d||  lg(rg) alpha_du alpha_pr  ls
 120  3.7741394e+03 6.10e+00 1.91e+14  -1.0 1.96e+05  -7.2 1.34e-01 1.00e+00h  1
 121  3.8721235e+03 5.41e+00 6.37e+13  -1.0 2.62e+05  -6.7 6.66e-01 1.13e-01h  4
 122  3.9056708e+03 5.22e+00 7.00e+08  -1.0 1.98e+05  -6.3 1.00e+00 3.59e-02h  3
 123  3.9236607e+03 5.06e+00 6.79e+08  -1.0 1.84e+05  -6.8 1.00e+00 3.12e-02h  6
 124  3.9340763e+03 4.90e+00 6.57e+08  -1.0 1.92e+05  -7.3 1.00e+00 3.12e-02h  6
 125  3.9349292e+03 4.89e+00 6.56e+08  -1.0 1.68e+05  -6.8 1.00e+00 1.95e-03h 10
 126  4.4300146e+03 5.88e+00 8.96e+03  -1.0 1.80e+05  -7.3 1.00e+00 1.00e+00h  1
 127  4.8772745e+03 3.27e+00 1.31e+04  -1.0 2.36e+05  -6.9 9.38e-01 4.43e-01h  2
 128  4.2583725e+03 8.45e+00 3.78e+03  -1.0 1.06e+05  -7.4 1.00e+00 1.00e+00f  1
 129  4.7664180e+03 5.35e+00 7.07e+03  -1.0 2.59e+05  -6.9 1.00e+00 3.22e-01h  1
iter    objective    inf_pr   inf_du lg(mu)  ||d||  lg(rg) alpha_du alpha_pr  ls
 130  4.7430383e+03 3.62e+00 5.01e+03  -1.0 7.58e+04  -6.5 1.00e+00 3.77e-01f  2
 131  5.0563169e+03 3.06e+00 1.77e+04  -1.0 2.75e+05  -6.1 1.00e+00 2.43e-01h  1
 132  5.0397495e+03 2.53e+00 1.55e+04  -1.0 9.05e+04  -5.7 7.37e-02 1.74e-01f  1
 133  5.0843345e+03 2.64e+00 1.92e+04  -1.0 7.29e+04  -6.1 3.84e-01 1.00e+00h  1
 134  5.6372714e+03 2.08e+00 1.76e+04  -1.0 2.60e+05  -6.6 1.00e+00 1.89e-01H  1
 135  5.9323236e+03 2.18e+00 1.55e+04  -1.0 2.02e+05  -7.1 1.00e+00 1.24e-01h  4
 136  5.6574826e+03 2.30e+00 4.45e+03  -1.0 8.33e+04  -6.7 8.28e-01 1.00e+00f  1
 137  5.6761829e+03 2.27e+00 4.39e+03  -1.0 3.58e+05  -7.2 1.00e+00 1.50e-02h  7
 138  5.8749412e+03 1.98e+00 4.04e+03  -1.0 2.46e+05  -6.7 1.00e+00 1.25e-01h  4
 139  5.9725783e+03 1.73e+00 3.59e+03  -1.0 2.72e+05  -7.2 1.00e+00 1.25e-01h  4
iter    objective    inf_pr   inf_du lg(mu)  ||d||  lg(rg) alpha_du alpha_pr  ls
 140  6.1068427e+03 1.86e+00 3.15e+03  -1.0 2.55e+05  -6.8 1.00e+00 8.82e-02h  4
 141  5.4302761e+03 2.22e+00 5.35e+03  -1.0 5.88e+04  -7.3 9.67e-01 1.00e+00f  1
 142  5.4490711e+03 2.20e+00 5.32e+03  -1.0 2.49e+05  -5.9 1.00e+00 1.16e-02h  2
 143  5.4563541e+03 2.19e+00 5.31e+03  -1.0 2.41e+05  -6.4 6.37e-01 1.89e-03h  9
 144  5.4577739e+03 2.19e+00 5.31e+03  -1.0 1.96e+05  -6.0 1.00e+00 5.56e-04h 11
 145  5.4581767e+03 2.19e+00 5.31e+03  -1.0 2.40e+05  -5.6 8.93e-01 2.14e-04h 11
 146r 5.4581767e+03 2.19e+00 1.00e+03   0.3 0.00e+00  -5.1 0.00e+00 4.87e-07R 18
 147r 5.4582265e+03 1.31e+00 1.01e+03   0.3 5.37e+03    -  5.48e-03 2.67e-03f  1
 148  5.5206067e+03 1.24e+00 1.10e+04  -1.0 3.04e+05    -  7.00e-01 5.41e-02h  1
 149  5.5597276e+03 1.19e+00 1.74e+04  -1.0 2.62e+05    -  4.18e-01 4.06e-02h  5
iter    objective    inf_pr   inf_du lg(mu)  ||d||  lg(rg) alpha_du alpha_pr  ls
 150  5.7056464e+03 1.04e+00 2.25e+04  -1.0 2.30e+05    -  5.09e-01 1.24e-01h  4
 151  5.6726838e+03 1.01e+00 2.48e+04  -1.0 3.96e+05    -  1.64e-01 2.85e-02f  6
 152  5.8288143e+03 1.25e+00 2.59e+04  -1.0 2.19e+05    -  5.69e-01 2.48e-01h  3
 153  5.8066988e+03 1.70e+00 2.67e+04  -1.0 4.72e+04  -5.6 3.22e-01 9.90e-01f  1
 154  5.8193010e+03 1.67e+00 6.53e+05  -1.0 1.64e+05  -6.1 2.46e-01 1.80e-02h  5
 155  5.8884020e+03 1.56e+00 2.72e+06  -1.0 1.60e+05  -6.6 7.65e-01 6.19e-02h  5
 156  6.1044452e+03 1.27e+00 4.21e+06  -1.0 1.70e+05  -6.1 9.18e-01 2.42e-01h  3
 157  5.9247326e+03 1.28e+00 3.93e+06  -1.0 4.92e+04  -6.6 9.23e-01 4.95e-01f  2
 158  5.9849290e+03 1.22e+00 9.90e+06  -1.0 1.49e+05  -7.1 8.66e-01 1.02e-01H  1
 159  5.9556873e+03 1.07e+00 1.53e+07  -1.0 4.00e+04  -6.7 8.34e-01 1.24e-01f  4
iter    objective    inf_pr   inf_du lg(mu)  ||d||  lg(rg) alpha_du alpha_pr  ls
 160  5.5333564e+03 1.13e+00 9.51e+06  -1.0 4.78e+04  -7.1 7.78e-02 9.90e-01f  1
 161  5.5034752e+03 1.02e+00 1.65e+08  -1.0 9.52e+04  -6.7 6.55e-01 4.95e-01f  2
 162  4.8429523e+03 1.62e+00 1.93e+09  -1.0 6.47e+04  -7.2 6.94e-02 9.90e-01f  1
 163  4.4986408e+03 1.50e+00 1.81e+11  -1.0 4.95e+05    -  9.45e-01 7.47e-02f  1
 164  3.1065570e+03 1.09e+01 1.30e+11  -1.0 3.91e+05    -  4.15e-01 1.00e+00f  1
 165  2.3230771e+03 3.03e+01 1.13e+13  -1.0 3.93e+05  -7.7 1.13e-01 1.00e+00f  1
 166  2.2388119e+03 2.93e+01 1.09e+13  -1.0 1.49e+06  -8.1 3.65e-02 3.20e-02f  1
 167  1.9563334e+03 2.91e+01 9.92e+12  -1.0 7.72e+06  -8.6 8.61e-02 6.29e-03f  1
 168  1.7999545e+03 2.90e+01 9.68e+12  -1.0 2.11e+07  -9.1 2.35e-02 3.83e-03f  1
 169  2.6107654e+03 2.31e+01 9.64e+12  -1.0 1.66e+06  -7.8 4.10e-03 2.03e-01h  3
iter    objective    inf_pr   inf_du lg(mu)  ||d||  lg(rg) alpha_du alpha_pr  ls
 170  3.1492752e+03 2.24e+01 4.54e+12  -1.0 3.70e+06  -8.2 5.30e-01 2.96e-02h  2
 171  3.6566313e+03 2.14e+01 2.77e+12  -1.0 1.33e+06  -7.8 3.90e-01 4.69e-02h  2
 172  3.8900034e+03 2.09e+01 1.81e+12  -1.0 1.18e+06  -7.4 3.45e-01 2.20e-02h  4
 173  3.9327573e+03 2.08e+01 1.80e+12  -1.0 1.36e+06  -7.9 5.32e-03 4.39e-03h  7
 174  3.9367437e+03 2.08e+01 1.80e+12  -1.0 1.22e+06  -8.3 4.16e-04 5.26e-04h 10
 175  3.9423617e+03 2.08e+01 1.80e+12  -1.0 1.61e+06  -7.9 5.06e-04 1.31e-03h  8
 176  3.9653214e+03 2.08e+01 1.73e+12  -1.0 7.27e+06  -8.4 3.80e-02 1.45e-04H  1
 177  6.3114362e+03 1.73e+01 1.73e+12  -1.0 1.56e+06  -8.0 1.18e-03 1.69e-01h  1
 178  1.5557885e+04 2.13e+01 1.70e+12  -1.0 9.36e+05  -7.5 1.56e-02 7.40e-01h  1
 179  1.5441232e+04 1.79e+01 9.82e+11  -1.0 8.49e+05  -7.1 4.23e-01 1.58e-01f  3
iter    objective    inf_pr   inf_du lg(mu)  ||d||  lg(rg) alpha_du alpha_pr  ls
 180  1.5270774e+04 1.32e+01 8.04e+11  -1.0 2.66e+05  -6.7 1.82e-01 2.65e-01f  1
 181  1.6352322e+04 1.47e+01 7.68e+11  -1.0 1.31e+06  -7.2 4.40e-02 8.27e-02h  3
 182  1.6413690e+04 1.45e+01 5.33e+11  -1.0 5.77e+05  -6.7 3.06e-01 1.28e-02h  1
 183  1.6466105e+04 1.44e+01 4.11e+11  -1.0 2.99e+06  -7.2 2.29e-01 1.39e-03h  1
 184  1.7174201e+04 1.25e+01 3.86e+04  -1.0 8.86e+05  -6.8 1.00e+00 1.35e-01h  1
 185  1.8149432e+04 1.23e+01 3.87e+04  -1.0 4.47e+06  -7.3 1.65e-01 1.20e-02h  3
 186  2.2633403e+04 7.79e+00 7.20e+04  -1.0 1.05e+06  -6.8 2.71e-01 3.69e-01h  1
 187  2.2669336e+04 7.72e+00 7.15e+04  -1.0 5.73e+05  -6.4 5.73e-01 8.87e-03h  1
 188  2.2675597e+04 7.72e+00 7.15e+04  -1.0 8.00e+06  -6.9 1.09e-01 5.22e-05h  3
 189  2.3824051e+04 7.75e+00 2.10e+05  -1.0 5.44e+05  -6.5 2.33e-02 3.96e-01h  2
iter    objective    inf_pr   inf_du lg(mu)  ||d||  lg(rg) alpha_du alpha_pr  ls
 190  2.3971060e+04 7.75e+00 2.10e+05  -1.0 1.04e+08  -7.0 8.39e-03 2.12e-04H  1
 191  2.4957782e+04 6.77e+00 1.56e+05  -1.0 1.71e+06  -6.5 3.27e-03 1.27e-01h  2
 192  2.4955995e+04 6.76e+00 2.02e+05  -1.0 6.89e+05  -3.4 5.85e-04 1.90e-03H  1
 193  2.4955961e+04 6.76e+00 1.97e+05  -1.0 6.84e+05  -3.9 1.93e-05 1.93e-05s  7
 194  2.4952942e+04 6.73e+00 1.55e+05  -1.0 6.99e+05  -4.3 3.68e-03 0.00e+00S  7
 195  2.4939248e+04 6.65e+00 1.53e+05  -1.0 7.00e+05  -4.8 1.72e-01 1.24e-02f  1
 196  2.4510782e+04 3.66e+00 6.38e+05  -1.0 7.02e+05  -5.3 1.48e-02 4.53e-01f  1
 197  2.4505314e+04 3.63e+00 1.22e+07  -1.0 5.97e+05  -3.1 7.78e-01 8.03e-03h  1
 198  2.4505187e+04 3.63e+00 1.20e+07  -1.0 5.29e+05  -3.5 5.42e-01 1.29e-04f  7
 199  2.4502685e+04 3.62e+00 8.90e+06  -1.0 5.36e+05  -4.0 3.31e-01 2.66e-03f  3
iter    objective    inf_pr   inf_du lg(mu)  ||d||  lg(rg) alpha_du alpha_pr  ls
 200  2.4469492e+04 3.61e+00 5.46e+06  -1.0 6.34e+05  -4.5 1.14e-01 2.42e-01f  1
 201  2.4485336e+04 3.68e+00 5.41e+06  -1.0 7.08e+05  -4.1 2.68e-02 4.70e-02h  1
 202  2.4511340e+04 3.34e+00 5.42e+06  -1.0 7.08e+05  -3.6 5.29e-04 3.13e-02h  1
 203  2.4528996e+04 3.24e+00 4.97e+06  -1.0 6.74e+05  -3.2 1.65e-04 2.97e-02f  3
 204  2.4573390e+04 3.03e+00 5.59e+06  -1.0 6.47e+05  -3.7 3.87e-02 6.35e-02H  1
 205  2.4573824e+04 3.03e+00 5.58e+06  -1.0 6.45e+05  -3.3 4.57e-01 7.79e-04h  1
 206  2.4573674e+04 3.03e+00 5.58e+06  -1.0 6.19e+05  -3.7 1.36e-01 1.17e-04f  2
 207  2.4351400e+04 2.94e+00 5.26e+06  -1.0 5.63e+05  -4.2 1.44e-01 5.19e-02f  1
 208  1.9024195e+04 2.57e+00 4.29e+08  -1.0 1.04e+06  -4.7 5.63e-04 1.00e+00f  1
 209  1.9046486e+04 2.54e+00 4.24e+08  -1.0 1.82e+05  -3.4 8.25e-01 1.17e-02h  1
iter    objective    inf_pr   inf_du lg(mu)  ||d||  lg(rg) alpha_du alpha_pr  ls
 210  1.9048055e+04 2.54e+00 4.23e+08  -1.0 2.47e+05  -3.8 1.00e+00 6.14e-04H  1
 211  1.9222710e+04 2.18e+00 3.62e+08  -1.0 2.53e+05  -3.4 1.00e+00 1.42e-01h  2
 212  1.9223213e+04 2.18e+00 3.62e+08  -1.0 2.94e+05  -3.0 2.28e-01 1.43e-04h  8
 213  1.9293698e+04 2.12e+00 3.53e+08  -1.0 2.47e+05  -3.5 2.46e-02 2.46e-02s 17
 214  1.9503295e+04 1.79e+00 3.51e+08  -1.0 5.56e+05  -4.0 3.62e-01 0.00e+00S 17
 215  1.9523008e+04 1.47e+00 2.88e+08  -1.0 1.15e+05  -4.4 4.54e-01 1.80e-01h  2
 216  2.0075710e+04 1.50e+00 4.27e+06  -1.0 1.15e+05  -4.9 7.52e-01 1.00e+00h  1
 217  2.0084352e+04 1.48e+00 4.20e+06  -1.0 4.67e+05  -5.4 4.31e-01 1.68e-02h  2
 218  2.0245049e+04 1.23e+00 3.52e+06  -1.0 7.79e+05  -5.9 7.53e-03 1.64e-01h  3
 219  2.0411553e+04 9.26e-01 2.63e+06  -1.0 3.61e+05  -5.4 9.42e-05 2.50e-01h  3
iter    objective    inf_pr   inf_du lg(mu)  ||d||  lg(rg) alpha_du alpha_pr  ls
 220  2.0395698e+04 1.06e+00 9.28e+11  -1.7 3.88e+05  -5.9 2.05e-02 1.10e-01f  1
 221  2.0395645e+04 1.07e+00 4.79e+12  -1.7 1.88e+05  -5.5 5.64e-01 2.59e-03h  1
 222  2.0395068e+04 8.07e-01 5.39e+12  -1.7 2.53e+05  -6.0 1.73e-01 1.90e-02h  1
 223  1.9745102e+04 3.18e+00 3.65e+12  -1.7 4.55e+05  -6.4 4.95e-03 1.00e+00F  1
 224  1.9733020e+04 9.49e-01 1.01e+12  -1.7 5.18e+04  -6.0 7.24e-01 4.25e-02f  1
 225  1.9727396e+04 8.23e+00 1.01e+12  -1.7 8.57e+04  -2.9 2.74e-04 8.77e-03f  1
 226  1.9723517e+04 1.09e+02 6.47e+11  -1.7 6.60e+04  -3.4 3.57e-01 3.77e-02f  1
 227  1.9720058e+04 1.05e+02 3.54e+11  -1.7 6.40e+04  -3.8 4.52e-01 3.01e-02f  1
 228  1.9714824e+04 2.00e+02 3.54e+11  -1.7 8.64e+05  -0.7 1.36e-06 5.16e-04f  1
 229r 1.9714824e+04 2.00e+02 1.00e+03   2.3 0.00e+00  -1.2 0.00e+00 1.71e-11R  2
iter    objective    inf_pr   inf_du lg(mu)  ||d||  lg(rg) alpha_du alpha_pr  ls
 230r 1.9714825e+04 1.96e+02 7.02e+08   2.3 3.90e+04    -  8.93e-03 1.04e-04f  4
MA27BD returned iflag=-4 and requires more memory.
 Increase liw from 35915 to 71830 and la from 38400 to 76976 and factorize again.
MA27BD returned iflag=-4 and requires more memory.
 Increase liw from 71830 to 143660 and la from 76976 to 161894 and factorize again.
 231r 1.9714825e+04 1.96e+02 2.75e+17   2.3 4.55e-03  11.5 1.00e+00 1.00e+00f  1
 232r 1.9714825e+04 1.96e+02 6.70e+17   2.3 5.14e-11  19.8 1.00e+00 1.00e+00h  1
 233r 1.9714825e+04 1.96e+02 1.04e+18   2.3 9.69e-11  19.7 1.00e+00 1.00e+00h  1
 234r 1.9714825e+04 1.96e+02 1.59e+11   2.3 3.00e-10  20.0 1.00e+00 1.00e+00h  1
 235r 1.9714825e+04 1.96e+02 1.63e+27   2.3 2.72e-01  19.5 7.53e-02 3.16e-02h  2
Scaling factors are invalid - setting them all to 1.
Scaling factors are invalid - setting them all to 1.
Scaling factors are invalid - setting them all to 1.
Scaling factors are invalid - setting them all to 1.
Scaling factors are invalid - setting them all to 1.
Scaling factors are invalid - setting them all to 1.
Scaling factors are invalid - setting them all to 1.
Scaling factors are invalid - setting them all to 1.
Scaling factors are invalid - setting them all to 1.
Scaling factors are invalid - setting them all to 1.
Scaling factors are invalid - setting them all to 1.
Scaling factors are invalid - setting them all to 1.
Scaling factors are invalid - setting them all to 1.
Scaling factors are invalid - setting them all to 1.
Scaling factors are invalid - setting them all to 1.
Scaling factors are invalid - setting them all to 1.
WARNING: Problem in step computation; switching to emergency mode.
 236r 1.9714825e+04 1.96e+02 1.63e+27   2.3 2.72e-01  20.0 0.00e+00 0.00e+00R  1
Scaling factors are invalid - setting them all to 1.
Scaling factors are invalid - setting them all to 1.
Scaling factors are invalid - setting them all to 1.
Scaling factors are invalid - setting them all to 1.
Scaling factors are invalid - setting them all to 1.
Scaling factors are invalid - setting them all to 1.
Scaling factors are invalid - setting them all to 1.
Scaling factors are invalid - setting them all to 1.
Scaling factors are invalid - setting them all to 1.
Scaling factors are invalid - setting them all to 1.
Scaling factors are invalid - setting them all to 1.
Scaling factors are invalid - setting them all to 1.
Scaling factors are invalid - setting them all to 1.
Scaling factors are invalid - setting them all to 1.
WARNING: Problem in step computation; switching to emergency mode.
Restoration phase is called at point that is almost feasible,
  with constraint violation 0.000000e+00. Abort.
Restoration phase in the restoration phase failed.

Number of Iterations....: 236

                                   (scaled)                 (unscaled)
Objective...............:   1.9714824805853204e+04    1.9714824805853204e+04
Dual infeasibility......:   1.6322199163938116e+27    1.6322199163938116e+27
Constraint violation....:   1.9579729159587779e+02    1.9579729159587779e+02
Complementarity.........:   2.2814836166062199e+02    2.2814836166062199e+02
Overall NLP error.......:   6.3492334438799612e+14    1.6322199163938116e+27


Number of objective function evaluations             = 994
Number of objective gradient evaluations             = 212
Number of equality constraint evaluations            = 995
Number of inequality constraint evaluations          = 0
Number of equality constraint Jacobian evaluations   = 241
Number of inequality constraint Jacobian evaluations = 0
Number of Lagrangian Hessian evaluations             = 237
Total CPU secs in IPOPT (w/o function evaluations)   =      1.349
Total CPU secs in NLP function evaluations           =     13.683

EXIT: Restoration Failed!
